(set-info :Origin "This instance was generated by: BanditFuzz-- an RL fuzzer for SMT solvers" )
(set-info :Author "Joe Scott, Fed Mora, Vijay Ganesh" )
(set-info :Contact "Joe Scott, joseph.scott@uwaterloo.ca")
(set-logic QF_BV)
(declare-const bool_0 Bool)
(declare-const bool_1 Bool)
(declare-const bool_2 Bool)
(declare-const bool_3 Bool)
(declare-const bool_4 Bool)
(declare-const bv_0 (_ BitVec 32))
(declare-const bv_1 (_ BitVec 32))
(declare-const bv_2 (_ BitVec 32))
(declare-const bv_3 (_ BitVec 32))
(declare-const bv_4 (_ BitVec 32))
(assert (bvsge (bvlshr (bvadd bv_1 #x2f3ab449 ) (bvxor #x587475b9  #x2e5b5800 )) (bvmul (bvshl bv_3 bv_0) (bvor bv_4 bv_2))))
(assert (bvult (bvshl (bvsmod #x3d3873cc  #x47af0fc7 ) (bvadd bv_4 #x175e4463 )) (bvnand (bvnor #x288d1871  bv_4) (bvshl bv_0 bv_2))))
(assert (xor (bvuge (bvlshr #xe3a38419  #x3cdd2620 ) (bvmul bv_4 bv_0)) (bvsge (bvashr bv_1 bv_2) (bvnor bv_3 #x23ab7d33 ))))
(assert (not (not (bvsle bv_2 #x4781b123 ))))
(assert (bvuge (bvxor (bvadd bv_3 #x1437d9ad ) (bvlshr #x409b7d67  #x96e232a3 )) (bvsdiv (bvxnor #xff89152c  bv_1) (bvnor #xf850151e  #xe88009e2 ))))
(check-sat)
(exit)
